NAME: random-52-23719
TYPE: TSP
COMMENT: size=52 seed=23719
DIMENSION: 106
EDGE_WEIGHT_TYPE: EUC_2D
NODE_COORD_SECTION
+0 233 38
-0 233 38
+1 178 697
-1 731 935
+2 173 428
-2 248 595
+3 25 658
-3 257 396
+4 167 397
-4 142 533
+5 263 528
-5 828 240
+6 350 621
-6 74 912
+7 755 608
-7 366 428
+8 553 98
-8 417 232
+9 666 304
-9 919 44
+10 500 833
-10 987 988
+11 624 227
-11 225 781
+12 690 586
-12 259 850
+13 619 296
-13 205 307
+14 423 647
-14 515 165
+15 439 852
-15 216 407
+16 825 55
-16 599 8
+17 372 224
-17 490 522
+18 481 269
-18 380 914
+19 904 395
-19 461 615
+20 487 55
-20 979 356
+21 52 201
-21 581 194
+22 487 90
-22 615 982
+23 820 580
-23 748 899
+24 26 830
-24 533 292
+25 851 537
-25 885 169
+26 541 729
-26 559 195
+27 14 495
-27 851 133
+28 17 656
-28 25 378
+29 615 119
-29 48 57
+30 714 219
-30 149 330
+31 866 100
-31 732 640
+32 684 121
-32 712 933
+33 403 68
-33 776 487
+34 814 75
-34 680 587
+35 798 822
-35 45 425
+36 923 345
-36 299 695
+37 805 525
-37 986 450
+38 422 875
-38 342 862
+39 556 231
-39 327 538
+40 371 714
-40 149 90
+41 691 844
-41 128 740
+42 123 342
-42 677 404
+43 655 613
-43 641 955
+44 156 333
-44 912 940
+45 185 7
-45 579 135
+46 561 880
-46 631 289
+47 933 534
-47 17 992
+48 185 908
-48 606 885
+49 643 380
-49 461 968
+50 809 320
-50 284 585
+51 971 271
-51 220 680
+52 920 903
-52 294 516
PRECEDENCE_SECTION
+0 -0
+1 -1
+2 -2
+3 -3
+4 -4
+5 -5
+6 -6
+7 -7
+8 -8
+9 -9
+10 -10
+11 -11
+12 -12
+13 -13
+14 -14
+15 -15
+16 -16
+17 -17
+18 -18
+19 -19
+20 -20
+21 -21
+22 -22
+23 -23
+24 -24
+25 -25
+26 -26
+27 -27
+28 -28
+29 -29
+30 -30
+31 -31
+32 -32
+33 -33
+34 -34
+35 -35
+36 -36
+37 -37
+38 -38
+39 -39
+40 -40
+41 -41
+42 -42
+43 -43
+44 -44
+45 -45
+46 -46
+47 -47
+48 -48
+49 -49
+50 -50
+51 -51
+52 -52
EOF
